c Sudoku solution
p cnf 729 0
114 0
157 0
179 0
285 0
335 0
369 0
382 0
454 0
477 0
491 0
538 0
622 0
658 0
488 0
667 0
675 0
693 0
733 0
829 0
887 0
898 0
196 0
911 0
928 0
944 0
747 0
768 0
937 0
264 0
297 0
394 0
148 0
165 0
132 0
983 0
181 0
123 0
425 0
616 0
439 0
413 0
517 0
318 0
327 0
219 0
278 0
373 0
751 0
959 0
871 0
834 0
726 0
976 0
995 0
715 0
812 0
962 0
524 0
631 0
684 0
649 0
221 0
236 0
356 0
341 0
561 0
252 0
243 0
553 0
545 0
442 0
466 0
846 0
855 0
863 0
774 0
792 0
789 0
572 0
599 0
586 0
